c *********************************
c * Circuit generated by BenCGen
c *
c * Parity_266
c *
c * Ports with 1 gate(s): 1
c * Ports with 2 gate(s): 266
c * Total gates: 267
c *********************************
p cnf 533 1065
1 269 0
-1 -269 0
1 -268 0
269 -268 0
-1 -269 268 0
1 2 -270 0
-1 2 270 0
1 -2 270 0
-1 -2 -270 0
3 4 -271 0
-3 4 271 0
3 -4 271 0
-3 -4 -271 0
5 6 -272 0
-5 6 272 0
5 -6 272 0
-5 -6 -272 0
7 8 -273 0
-7 8 273 0
7 -8 273 0
-7 -8 -273 0
9 10 -274 0
-9 10 274 0
9 -10 274 0
-9 -10 -274 0
11 12 -275 0
-11 12 275 0
11 -12 275 0
-11 -12 -275 0
13 14 -276 0
-13 14 276 0
13 -14 276 0
-13 -14 -276 0
15 16 -277 0
-15 16 277 0
15 -16 277 0
-15 -16 -277 0
17 18 -278 0
-17 18 278 0
17 -18 278 0
-17 -18 -278 0
19 20 -279 0
-19 20 279 0
19 -20 279 0
-19 -20 -279 0
21 22 -280 0
-21 22 280 0
21 -22 280 0
-21 -22 -280 0
23 24 -281 0
-23 24 281 0
23 -24 281 0
-23 -24 -281 0
25 26 -282 0
-25 26 282 0
25 -26 282 0
-25 -26 -282 0
27 28 -283 0
-27 28 283 0
27 -28 283 0
-27 -28 -283 0
29 30 -284 0
-29 30 284 0
29 -30 284 0
-29 -30 -284 0
31 32 -285 0
-31 32 285 0
31 -32 285 0
-31 -32 -285 0
33 34 -286 0
-33 34 286 0
33 -34 286 0
-33 -34 -286 0
35 36 -287 0
-35 36 287 0
35 -36 287 0
-35 -36 -287 0
37 38 -288 0
-37 38 288 0
37 -38 288 0
-37 -38 -288 0
39 40 -289 0
-39 40 289 0
39 -40 289 0
-39 -40 -289 0
41 42 -290 0
-41 42 290 0
41 -42 290 0
-41 -42 -290 0
43 44 -291 0
-43 44 291 0
43 -44 291 0
-43 -44 -291 0
45 46 -292 0
-45 46 292 0
45 -46 292 0
-45 -46 -292 0
47 48 -293 0
-47 48 293 0
47 -48 293 0
-47 -48 -293 0
49 50 -294 0
-49 50 294 0
49 -50 294 0
-49 -50 -294 0
51 52 -295 0
-51 52 295 0
51 -52 295 0
-51 -52 -295 0
53 54 -296 0
-53 54 296 0
53 -54 296 0
-53 -54 -296 0
55 56 -297 0
-55 56 297 0
55 -56 297 0
-55 -56 -297 0
57 58 -298 0
-57 58 298 0
57 -58 298 0
-57 -58 -298 0
59 60 -299 0
-59 60 299 0
59 -60 299 0
-59 -60 -299 0
61 62 -300 0
-61 62 300 0
61 -62 300 0
-61 -62 -300 0
63 64 -301 0
-63 64 301 0
63 -64 301 0
-63 -64 -301 0
65 66 -302 0
-65 66 302 0
65 -66 302 0
-65 -66 -302 0
67 68 -303 0
-67 68 303 0
67 -68 303 0
-67 -68 -303 0
69 70 -304 0
-69 70 304 0
69 -70 304 0
-69 -70 -304 0
71 72 -305 0
-71 72 305 0
71 -72 305 0
-71 -72 -305 0
73 74 -306 0
-73 74 306 0
73 -74 306 0
-73 -74 -306 0
75 76 -307 0
-75 76 307 0
75 -76 307 0
-75 -76 -307 0
77 78 -308 0
-77 78 308 0
77 -78 308 0
-77 -78 -308 0
79 80 -309 0
-79 80 309 0
79 -80 309 0
-79 -80 -309 0
81 82 -310 0
-81 82 310 0
81 -82 310 0
-81 -82 -310 0
83 84 -311 0
-83 84 311 0
83 -84 311 0
-83 -84 -311 0
85 86 -312 0
-85 86 312 0
85 -86 312 0
-85 -86 -312 0
87 88 -313 0
-87 88 313 0
87 -88 313 0
-87 -88 -313 0
89 90 -314 0
-89 90 314 0
89 -90 314 0
-89 -90 -314 0
91 92 -315 0
-91 92 315 0
91 -92 315 0
-91 -92 -315 0
93 94 -316 0
-93 94 316 0
93 -94 316 0
-93 -94 -316 0
95 96 -317 0
-95 96 317 0
95 -96 317 0
-95 -96 -317 0
97 98 -318 0
-97 98 318 0
97 -98 318 0
-97 -98 -318 0
99 100 -319 0
-99 100 319 0
99 -100 319 0
-99 -100 -319 0
101 102 -320 0
-101 102 320 0
101 -102 320 0
-101 -102 -320 0
103 104 -321 0
-103 104 321 0
103 -104 321 0
-103 -104 -321 0
105 106 -322 0
-105 106 322 0
105 -106 322 0
-105 -106 -322 0
107 108 -323 0
-107 108 323 0
107 -108 323 0
-107 -108 -323 0
109 110 -324 0
-109 110 324 0
109 -110 324 0
-109 -110 -324 0
111 112 -325 0
-111 112 325 0
111 -112 325 0
-111 -112 -325 0
113 114 -326 0
-113 114 326 0
113 -114 326 0
-113 -114 -326 0
115 116 -327 0
-115 116 327 0
115 -116 327 0
-115 -116 -327 0
117 118 -328 0
-117 118 328 0
117 -118 328 0
-117 -118 -328 0
119 120 -329 0
-119 120 329 0
119 -120 329 0
-119 -120 -329 0
121 122 -330 0
-121 122 330 0
121 -122 330 0
-121 -122 -330 0
123 124 -331 0
-123 124 331 0
123 -124 331 0
-123 -124 -331 0
125 126 -332 0
-125 126 332 0
125 -126 332 0
-125 -126 -332 0
127 128 -333 0
-127 128 333 0
127 -128 333 0
-127 -128 -333 0
129 130 -334 0
-129 130 334 0
129 -130 334 0
-129 -130 -334 0
131 132 -335 0
-131 132 335 0
131 -132 335 0
-131 -132 -335 0
133 134 -336 0
-133 134 336 0
133 -134 336 0
-133 -134 -336 0
135 136 -337 0
-135 136 337 0
135 -136 337 0
-135 -136 -337 0
137 138 -338 0
-137 138 338 0
137 -138 338 0
-137 -138 -338 0
139 140 -339 0
-139 140 339 0
139 -140 339 0
-139 -140 -339 0
141 142 -340 0
-141 142 340 0
141 -142 340 0
-141 -142 -340 0
143 144 -341 0
-143 144 341 0
143 -144 341 0
-143 -144 -341 0
145 146 -342 0
-145 146 342 0
145 -146 342 0
-145 -146 -342 0
147 148 -343 0
-147 148 343 0
147 -148 343 0
-147 -148 -343 0
149 150 -344 0
-149 150 344 0
149 -150 344 0
-149 -150 -344 0
151 152 -345 0
-151 152 345 0
151 -152 345 0
-151 -152 -345 0
153 154 -346 0
-153 154 346 0
153 -154 346 0
-153 -154 -346 0
155 156 -347 0
-155 156 347 0
155 -156 347 0
-155 -156 -347 0
157 158 -348 0
-157 158 348 0
157 -158 348 0
-157 -158 -348 0
159 160 -349 0
-159 160 349 0
159 -160 349 0
-159 -160 -349 0
161 162 -350 0
-161 162 350 0
161 -162 350 0
-161 -162 -350 0
163 164 -351 0
-163 164 351 0
163 -164 351 0
-163 -164 -351 0
165 166 -352 0
-165 166 352 0
165 -166 352 0
-165 -166 -352 0
167 168 -353 0
-167 168 353 0
167 -168 353 0
-167 -168 -353 0
169 170 -354 0
-169 170 354 0
169 -170 354 0
-169 -170 -354 0
171 172 -355 0
-171 172 355 0
171 -172 355 0
-171 -172 -355 0
173 174 -356 0
-173 174 356 0
173 -174 356 0
-173 -174 -356 0
175 176 -357 0
-175 176 357 0
175 -176 357 0
-175 -176 -357 0
177 178 -358 0
-177 178 358 0
177 -178 358 0
-177 -178 -358 0
179 180 -359 0
-179 180 359 0
179 -180 359 0
-179 -180 -359 0
181 182 -360 0
-181 182 360 0
181 -182 360 0
-181 -182 -360 0
183 184 -361 0
-183 184 361 0
183 -184 361 0
-183 -184 -361 0
185 186 -362 0
-185 186 362 0
185 -186 362 0
-185 -186 -362 0
187 188 -363 0
-187 188 363 0
187 -188 363 0
-187 -188 -363 0
189 190 -364 0
-189 190 364 0
189 -190 364 0
-189 -190 -364 0
191 192 -365 0
-191 192 365 0
191 -192 365 0
-191 -192 -365 0
193 194 -366 0
-193 194 366 0
193 -194 366 0
-193 -194 -366 0
195 196 -367 0
-195 196 367 0
195 -196 367 0
-195 -196 -367 0
197 198 -368 0
-197 198 368 0
197 -198 368 0
-197 -198 -368 0
199 200 -369 0
-199 200 369 0
199 -200 369 0
-199 -200 -369 0
201 202 -370 0
-201 202 370 0
201 -202 370 0
-201 -202 -370 0
203 204 -371 0
-203 204 371 0
203 -204 371 0
-203 -204 -371 0
205 206 -372 0
-205 206 372 0
205 -206 372 0
-205 -206 -372 0
207 208 -373 0
-207 208 373 0
207 -208 373 0
-207 -208 -373 0
209 210 -374 0
-209 210 374 0
209 -210 374 0
-209 -210 -374 0
211 212 -375 0
-211 212 375 0
211 -212 375 0
-211 -212 -375 0
213 214 -376 0
-213 214 376 0
213 -214 376 0
-213 -214 -376 0
215 216 -377 0
-215 216 377 0
215 -216 377 0
-215 -216 -377 0
217 218 -378 0
-217 218 378 0
217 -218 378 0
-217 -218 -378 0
219 220 -379 0
-219 220 379 0
219 -220 379 0
-219 -220 -379 0
221 222 -380 0
-221 222 380 0
221 -222 380 0
-221 -222 -380 0
223 224 -381 0
-223 224 381 0
223 -224 381 0
-223 -224 -381 0
225 226 -382 0
-225 226 382 0
225 -226 382 0
-225 -226 -382 0
227 228 -383 0
-227 228 383 0
227 -228 383 0
-227 -228 -383 0
229 230 -384 0
-229 230 384 0
229 -230 384 0
-229 -230 -384 0
231 232 -385 0
-231 232 385 0
231 -232 385 0
-231 -232 -385 0
233 234 -386 0
-233 234 386 0
233 -234 386 0
-233 -234 -386 0
235 236 -387 0
-235 236 387 0
235 -236 387 0
-235 -236 -387 0
237 238 -388 0
-237 238 388 0
237 -238 388 0
-237 -238 -388 0
239 240 -389 0
-239 240 389 0
239 -240 389 0
-239 -240 -389 0
241 242 -390 0
-241 242 390 0
241 -242 390 0
-241 -242 -390 0
243 244 -391 0
-243 244 391 0
243 -244 391 0
-243 -244 -391 0
245 246 -392 0
-245 246 392 0
245 -246 392 0
-245 -246 -392 0
247 248 -393 0
-247 248 393 0
247 -248 393 0
-247 -248 -393 0
249 250 -394 0
-249 250 394 0
249 -250 394 0
-249 -250 -394 0
251 252 -395 0
-251 252 395 0
251 -252 395 0
-251 -252 -395 0
253 254 -396 0
-253 254 396 0
253 -254 396 0
-253 -254 -396 0
255 256 -397 0
-255 256 397 0
255 -256 397 0
-255 -256 -397 0
257 258 -398 0
-257 258 398 0
257 -258 398 0
-257 -258 -398 0
259 260 -399 0
-259 260 399 0
259 -260 399 0
-259 -260 -399 0
261 262 -400 0
-261 262 400 0
261 -262 400 0
-261 -262 -400 0
263 264 -401 0
-263 264 401 0
263 -264 401 0
-263 -264 -401 0
265 266 -402 0
-265 266 402 0
265 -266 402 0
-265 -266 -402 0
270 271 -403 0
-270 271 403 0
270 -271 403 0
-270 -271 -403 0
272 273 -404 0
-272 273 404 0
272 -273 404 0
-272 -273 -404 0
274 275 -405 0
-274 275 405 0
274 -275 405 0
-274 -275 -405 0
276 277 -406 0
-276 277 406 0
276 -277 406 0
-276 -277 -406 0
278 279 -407 0
-278 279 407 0
278 -279 407 0
-278 -279 -407 0
280 281 -408 0
-280 281 408 0
280 -281 408 0
-280 -281 -408 0
282 283 -409 0
-282 283 409 0
282 -283 409 0
-282 -283 -409 0
284 285 -410 0
-284 285 410 0
284 -285 410 0
-284 -285 -410 0
286 287 -411 0
-286 287 411 0
286 -287 411 0
-286 -287 -411 0
288 289 -412 0
-288 289 412 0
288 -289 412 0
-288 -289 -412 0
290 291 -413 0
-290 291 413 0
290 -291 413 0
-290 -291 -413 0
292 293 -414 0
-292 293 414 0
292 -293 414 0
-292 -293 -414 0
294 295 -415 0
-294 295 415 0
294 -295 415 0
-294 -295 -415 0
296 297 -416 0
-296 297 416 0
296 -297 416 0
-296 -297 -416 0
298 299 -417 0
-298 299 417 0
298 -299 417 0
-298 -299 -417 0
300 301 -418 0
-300 301 418 0
300 -301 418 0
-300 -301 -418 0
302 303 -419 0
-302 303 419 0
302 -303 419 0
-302 -303 -419 0
304 305 -420 0
-304 305 420 0
304 -305 420 0
-304 -305 -420 0
306 307 -421 0
-306 307 421 0
306 -307 421 0
-306 -307 -421 0
308 309 -422 0
-308 309 422 0
308 -309 422 0
-308 -309 -422 0
310 311 -423 0
-310 311 423 0
310 -311 423 0
-310 -311 -423 0
312 313 -424 0
-312 313 424 0
312 -313 424 0
-312 -313 -424 0
314 315 -425 0
-314 315 425 0
314 -315 425 0
-314 -315 -425 0
316 317 -426 0
-316 317 426 0
316 -317 426 0
-316 -317 -426 0
318 319 -427 0
-318 319 427 0
318 -319 427 0
-318 -319 -427 0
320 321 -428 0
-320 321 428 0
320 -321 428 0
-320 -321 -428 0
322 323 -429 0
-322 323 429 0
322 -323 429 0
-322 -323 -429 0
324 325 -430 0
-324 325 430 0
324 -325 430 0
-324 -325 -430 0
326 327 -431 0
-326 327 431 0
326 -327 431 0
-326 -327 -431 0
328 329 -432 0
-328 329 432 0
328 -329 432 0
-328 -329 -432 0
330 331 -433 0
-330 331 433 0
330 -331 433 0
-330 -331 -433 0
332 333 -434 0
-332 333 434 0
332 -333 434 0
-332 -333 -434 0
334 335 -435 0
-334 335 435 0
334 -335 435 0
-334 -335 -435 0
336 337 -436 0
-336 337 436 0
336 -337 436 0
-336 -337 -436 0
338 339 -437 0
-338 339 437 0
338 -339 437 0
-338 -339 -437 0
340 341 -438 0
-340 341 438 0
340 -341 438 0
-340 -341 -438 0
342 343 -439 0
-342 343 439 0
342 -343 439 0
-342 -343 -439 0
344 345 -440 0
-344 345 440 0
344 -345 440 0
-344 -345 -440 0
346 347 -441 0
-346 347 441 0
346 -347 441 0
-346 -347 -441 0
348 349 -442 0
-348 349 442 0
348 -349 442 0
-348 -349 -442 0
350 351 -443 0
-350 351 443 0
350 -351 443 0
-350 -351 -443 0
352 353 -444 0
-352 353 444 0
352 -353 444 0
-352 -353 -444 0
354 355 -445 0
-354 355 445 0
354 -355 445 0
-354 -355 -445 0
356 357 -446 0
-356 357 446 0
356 -357 446 0
-356 -357 -446 0
358 359 -447 0
-358 359 447 0
358 -359 447 0
-358 -359 -447 0
360 361 -448 0
-360 361 448 0
360 -361 448 0
-360 -361 -448 0
362 363 -449 0
-362 363 449 0
362 -363 449 0
-362 -363 -449 0
364 365 -450 0
-364 365 450 0
364 -365 450 0
-364 -365 -450 0
366 367 -451 0
-366 367 451 0
366 -367 451 0
-366 -367 -451 0
368 369 -452 0
-368 369 452 0
368 -369 452 0
-368 -369 -452 0
370 371 -453 0
-370 371 453 0
370 -371 453 0
-370 -371 -453 0
372 373 -454 0
-372 373 454 0
372 -373 454 0
-372 -373 -454 0
374 375 -455 0
-374 375 455 0
374 -375 455 0
-374 -375 -455 0
376 377 -456 0
-376 377 456 0
376 -377 456 0
-376 -377 -456 0
378 379 -457 0
-378 379 457 0
378 -379 457 0
-378 -379 -457 0
380 381 -458 0
-380 381 458 0
380 -381 458 0
-380 -381 -458 0
382 383 -459 0
-382 383 459 0
382 -383 459 0
-382 -383 -459 0
384 385 -460 0
-384 385 460 0
384 -385 460 0
-384 -385 -460 0
386 387 -461 0
-386 387 461 0
386 -387 461 0
-386 -387 -461 0
388 389 -462 0
-388 389 462 0
388 -389 462 0
-388 -389 -462 0
390 391 -463 0
-390 391 463 0
390 -391 463 0
-390 -391 -463 0
392 393 -464 0
-392 393 464 0
392 -393 464 0
-392 -393 -464 0
394 395 -465 0
-394 395 465 0
394 -395 465 0
-394 -395 -465 0
396 397 -466 0
-396 397 466 0
396 -397 466 0
-396 -397 -466 0
398 399 -467 0
-398 399 467 0
398 -399 467 0
-398 -399 -467 0
400 401 -468 0
-400 401 468 0
400 -401 468 0
-400 -401 -468 0
403 404 -469 0
-403 404 469 0
403 -404 469 0
-403 -404 -469 0
405 406 -470 0
-405 406 470 0
405 -406 470 0
-405 -406 -470 0
407 408 -471 0
-407 408 471 0
407 -408 471 0
-407 -408 -471 0
409 410 -472 0
-409 410 472 0
409 -410 472 0
-409 -410 -472 0
411 412 -473 0
-411 412 473 0
411 -412 473 0
-411 -412 -473 0
413 414 -474 0
-413 414 474 0
413 -414 474 0
-413 -414 -474 0
415 416 -475 0
-415 416 475 0
415 -416 475 0
-415 -416 -475 0
417 418 -476 0
-417 418 476 0
417 -418 476 0
-417 -418 -476 0
419 420 -477 0
-419 420 477 0
419 -420 477 0
-419 -420 -477 0
421 422 -478 0
-421 422 478 0
421 -422 478 0
-421 -422 -478 0
423 424 -479 0
-423 424 479 0
423 -424 479 0
-423 -424 -479 0
425 426 -480 0
-425 426 480 0
425 -426 480 0
-425 -426 -480 0
427 428 -481 0
-427 428 481 0
427 -428 481 0
-427 -428 -481 0
429 430 -482 0
-429 430 482 0
429 -430 482 0
-429 -430 -482 0
431 432 -483 0
-431 432 483 0
431 -432 483 0
-431 -432 -483 0
433 434 -484 0
-433 434 484 0
433 -434 484 0
-433 -434 -484 0
435 436 -485 0
-435 436 485 0
435 -436 485 0
-435 -436 -485 0
437 438 -486 0
-437 438 486 0
437 -438 486 0
-437 -438 -486 0
439 440 -487 0
-439 440 487 0
439 -440 487 0
-439 -440 -487 0
441 442 -488 0
-441 442 488 0
441 -442 488 0
-441 -442 -488 0
443 444 -489 0
-443 444 489 0
443 -444 489 0
-443 -444 -489 0
445 446 -490 0
-445 446 490 0
445 -446 490 0
-445 -446 -490 0
447 448 -491 0
-447 448 491 0
447 -448 491 0
-447 -448 -491 0
449 450 -492 0
-449 450 492 0
449 -450 492 0
-449 -450 -492 0
451 452 -493 0
-451 452 493 0
451 -452 493 0
-451 -452 -493 0
453 454 -494 0
-453 454 494 0
453 -454 494 0
-453 -454 -494 0
455 456 -495 0
-455 456 495 0
455 -456 495 0
-455 -456 -495 0
457 458 -496 0
-457 458 496 0
457 -458 496 0
-457 -458 -496 0
459 460 -497 0
-459 460 497 0
459 -460 497 0
-459 -460 -497 0
461 462 -498 0
-461 462 498 0
461 -462 498 0
-461 -462 -498 0
463 464 -499 0
-463 464 499 0
463 -464 499 0
-463 -464 -499 0
465 466 -500 0
-465 466 500 0
465 -466 500 0
-465 -466 -500 0
467 468 -501 0
-467 468 501 0
467 -468 501 0
-467 -468 -501 0
469 470 -502 0
-469 470 502 0
469 -470 502 0
-469 -470 -502 0
471 472 -503 0
-471 472 503 0
471 -472 503 0
-471 -472 -503 0
473 474 -504 0
-473 474 504 0
473 -474 504 0
-473 -474 -504 0
475 476 -505 0
-475 476 505 0
475 -476 505 0
-475 -476 -505 0
477 478 -506 0
-477 478 506 0
477 -478 506 0
-477 -478 -506 0
479 480 -507 0
-479 480 507 0
479 -480 507 0
-479 -480 -507 0
481 482 -508 0
-481 482 508 0
481 -482 508 0
-481 -482 -508 0
483 484 -509 0
-483 484 509 0
483 -484 509 0
-483 -484 -509 0
485 486 -510 0
-485 486 510 0
485 -486 510 0
-485 -486 -510 0
487 488 -511 0
-487 488 511 0
487 -488 511 0
-487 -488 -511 0
489 490 -512 0
-489 490 512 0
489 -490 512 0
-489 -490 -512 0
491 492 -513 0
-491 492 513 0
491 -492 513 0
-491 -492 -513 0
493 494 -514 0
-493 494 514 0
493 -494 514 0
-493 -494 -514 0
495 496 -515 0
-495 496 515 0
495 -496 515 0
-495 -496 -515 0
497 498 -516 0
-497 498 516 0
497 -498 516 0
-497 -498 -516 0
499 500 -517 0
-499 500 517 0
499 -500 517 0
-499 -500 -517 0
501 402 -518 0
-501 402 518 0
501 -402 518 0
-501 -402 -518 0
502 503 -519 0
-502 503 519 0
502 -503 519 0
-502 -503 -519 0
504 505 -520 0
-504 505 520 0
504 -505 520 0
-504 -505 -520 0
506 507 -521 0
-506 507 521 0
506 -507 521 0
-506 -507 -521 0
508 509 -522 0
-508 509 522 0
508 -509 522 0
-508 -509 -522 0
510 511 -523 0
-510 511 523 0
510 -511 523 0
-510 -511 -523 0
512 513 -524 0
-512 513 524 0
512 -513 524 0
-512 -513 -524 0
514 515 -525 0
-514 515 525 0
514 -515 525 0
-514 -515 -525 0
516 517 -526 0
-516 517 526 0
516 -517 526 0
-516 -517 -526 0
519 520 -527 0
-519 520 527 0
519 -520 527 0
-519 -520 -527 0
521 522 -528 0
-521 522 528 0
521 -522 528 0
-521 -522 -528 0
523 524 -529 0
-523 524 529 0
523 -524 529 0
-523 -524 -529 0
525 526 -530 0
-525 526 530 0
525 -526 530 0
-525 -526 -530 0
527 528 -531 0
-527 528 531 0
527 -528 531 0
-527 -528 -531 0
529 530 -532 0
-529 530 532 0
529 -530 532 0
-529 -530 -532 0
531 532 -533 0
-531 532 533 0
531 -532 533 0
-531 -532 -533 0
533 518 -267 0
-533 518 267 0
533 -518 267 0
-533 -518 -267 0
